* #variable= 680 #constraint= 643 
+1 x21 -1 x1 >= 0 ;
+1 x21 -1 x11 >= 0 ;
-1 x21 +1 x1 +1 x11 >= 0 ;
+1 x11 = 0 ;
+1 x22 -1 x2 >= 0 ;
+1 x22 -1 x12 >= 0 ;
-1 x22 +1 x2 +1 x12 >= 0 ;
+1 x12 = 1 ;
+1 x23 -1 x3 >= 0 ;
+1 x23 -1 x13 >= 0 ;
-1 x23 +1 x3 +1 x13 >= 0 ;
+1 x13 = 0 ;
+1 x24 -1 x4 >= 0 ;
+1 x24 -1 x14 >= 0 ;
-1 x24 +1 x4 +1 x14 >= 0 ;
+1 x14 = 1 ;
+1 x25 -1 x5 >= 0 ;
+1 x25 -1 x15 >= 0 ;
-1 x25 +1 x5 +1 x15 >= 0 ;
+1 x15 = 0 ;
+1 x26 -1 x6 >= 0 ;
+1 x26 -1 x16 >= 0 ;
-1 x26 +1 x6 +1 x16 >= 0 ;
+1 x16 = 1 ;
+1 x27 -1 x7 >= 0 ;
+1 x27 -1 x17 >= 0 ;
-1 x27 +1 x7 +1 x17 >= 0 ;
+1 x17 = 0 ;
+1 x28 -1 x8 >= 0 ;
+1 x28 -1 x18 >= 0 ;
-1 x28 +1 x8 +1 x18 >= 0 ;
+1 x18 = 1 ;
+1 x29 -1 x9 >= 0 ;
+1 x29 -1 x19 >= 0 ;
-1 x29 +1 x9 +1 x19 >= 0 ;
+1 x19 = 0 ;
+1 x30 -1 x10 >= 0 ;
+1 x30 -1 x20 >= 0 ;
-1 x30 +1 x10 +1 x20 >= 0 ;
+1 x20 = 1 ;
-1 x41 +1 x21 >= 0 ;
-1 x41 +1 x31 >= 0 ;
+1 x41 -1 x21 -1 x31 >= -1 ;
+1 x41 +2 x51 +4 x61 +8 x71 +16 x81 +32 x91 +64 x101 +128 x111 +256 x121 +512 x131 +2 x42 +4 x52 +8 x62 +16 x72 +32 x82 +64 x92 +128 x102 +256 x112 +512 x122 +1024 x132 +4 x43 +8 x53 +16 x63 +32 x73 +64 x83 +128 x93 +256 x103 +512 x113 +1024 x123 +2048 x133 +8 x44 +16 x54 +32 x64 +64 x74 +128 x84 +256 x94 +512 x104 +1024 x114 +2048 x124 +4096 x134 +16 x45 +32 x55 +64 x65 +128 x75 +256 x85 +512 x95 +1024 x105 +2048 x115 +4096 x125 +8192 x135 +32 x46 +64 x56 +128 x66 +256 x76 +512 x86 +1024 x96 +2048 x106 +4096 x116 +8192 x126 +16384 x136 +64 x47 +128 x57 +256 x67 +512 x77 +1024 x87 +2048 x97 +4096 x107 +8192 x117 +16384 x127 +32768 x137 +128 x48 +256 x58 +512 x68 +1024 x78 +2048 x88 +4096 x98 +8192 x108 +16384 x118 +32768 x128 +65536 x138 +256 x49 +512 x59 +1024 x69 +2048 x79 +4096 x89 +8192 x99 +16384 x109 +32768 x119 +65536 x129 +131072 x139 +512 x50 +1024 x60 +2048 x70 +4096 x80 +8192 x90 +16384 x100 +32768 x110 +65536 x120 +131072 x130 +262144 x140 -1 x641 -2 x642 -4 x643 -8 x644 -16 x645 -32 x646 -64 x647 -128 x648 -256 x649 -512 x650 -1024 x651 -2048 x652 -4096 x653 -8192 x654 -16384 x655 -32768 x656 -65536 x657 -131072 x658 -262144 x659 -524288 x660 = 0; 
-1 x341 +1 x11 >= 0 ;
-1 x341 +1 x31 >= 0 ;
+1 x341 -1 x11 -1 x31 >= -1 ;
+1 x341 +2 x351 +4 x361 +8 x371 +16 x381 +32 x391 +64 x401 +128 x411 +256 x421 +512 x431 +2 x342 +4 x352 +8 x362 +16 x372 +32 x382 +64 x392 +128 x402 +256 x412 +512 x422 +1024 x432 +4 x343 +8 x353 +16 x363 +32 x373 +64 x383 +128 x393 +256 x403 +512 x413 +1024 x423 +2048 x433 +8 x344 +16 x354 +32 x364 +64 x374 +128 x384 +256 x394 +512 x404 +1024 x414 +2048 x424 +4096 x434 +16 x345 +32 x355 +64 x365 +128 x375 +256 x385 +512 x395 +1024 x405 +2048 x415 +4096 x425 +8192 x435 +32 x346 +64 x356 +128 x366 +256 x376 +512 x386 +1024 x396 +2048 x406 +4096 x416 +8192 x426 +16384 x436 +64 x347 +128 x357 +256 x367 +512 x377 +1024 x387 +2048 x397 +4096 x407 +8192 x417 +16384 x427 +32768 x437 +128 x348 +256 x358 +512 x368 +1024 x378 +2048 x388 +4096 x398 +8192 x408 +16384 x418 +32768 x428 +65536 x438 +256 x349 +512 x359 +1024 x369 +2048 x379 +4096 x389 +8192 x399 +16384 x409 +32768 x419 +65536 x429 +131072 x439 +512 x350 +1024 x360 +2048 x370 +4096 x380 +8192 x390 +16384 x400 +32768 x410 +65536 x420 +131072 x430 +262144 x440 -1 x661 -2 x662 -4 x663 -8 x664 -16 x665 -32 x666 -64 x667 -128 x668 -256 x669 -512 x670 -1024 x671 -2048 x672 -4096 x673 -8192 x674 -16384 x675 -32768 x676 -65536 x677 -131072 x678 -262144 x679 -524288 x680 = 0; 
+1 x661 -1 x641 +2 x662 -2 x642 +4 x663 -4 x643 +8 x664 -8 x644 +16 x665 -16 x645 +32 x666 -32 x646 +64 x667 -64 x647 +128 x668 -128 x648 +256 x669 -256 x649 +512 x670 -512 x650 +1024 x671 -1024 x651 +2048 x672 -2048 x652 +4096 x673 -4096 x653 +8192 x674 -8192 x654 +16384 x675 -16384 x655 +32768 x676 -32768 x656 +65536 x677 -65536 x657 +131072 x678 -131072 x658 +262144 x679 -262144 x659 +524288 x680 -524288 x660 >= 1 ;
-1 x51 +1 x22 >= 0 ;
-1 x51 +1 x31 >= 0 ;
+1 x51 -1 x22 -1 x31 >= -1 ;
-1 x42 +1 x21 >= 0 ;
-1 x42 +1 x32 >= 0 ;
+1 x42 -1 x21 -1 x32 >= -1 ;
-1 x351 +1 x12 >= 0 ;
-1 x351 +1 x31 >= 0 ;
+1 x351 -1 x12 -1 x31 >= -1 ;
-1 x342 +1 x11 >= 0 ;
-1 x342 +1 x32 >= 0 ;
+1 x342 -1 x11 -1 x32 >= -1 ;
-1 x61 +1 x23 >= 0 ;
-1 x61 +1 x31 >= 0 ;
+1 x61 -1 x23 -1 x31 >= -1 ;
-1 x52 +1 x22 >= 0 ;
-1 x52 +1 x32 >= 0 ;
+1 x52 -1 x22 -1 x32 >= -1 ;
-1 x43 +1 x21 >= 0 ;
-1 x43 +1 x33 >= 0 ;
+1 x43 -1 x21 -1 x33 >= -1 ;
-1 x361 +1 x13 >= 0 ;
-1 x361 +1 x31 >= 0 ;
+1 x361 -1 x13 -1 x31 >= -1 ;
-1 x352 +1 x12 >= 0 ;
-1 x352 +1 x32 >= 0 ;
+1 x352 -1 x12 -1 x32 >= -1 ;
-1 x343 +1 x11 >= 0 ;
-1 x343 +1 x33 >= 0 ;
+1 x343 -1 x11 -1 x33 >= -1 ;
-1 x71 +1 x24 >= 0 ;
-1 x71 +1 x31 >= 0 ;
+1 x71 -1 x24 -1 x31 >= -1 ;
-1 x62 +1 x23 >= 0 ;
-1 x62 +1 x32 >= 0 ;
+1 x62 -1 x23 -1 x32 >= -1 ;
-1 x53 +1 x22 >= 0 ;
-1 x53 +1 x33 >= 0 ;
+1 x53 -1 x22 -1 x33 >= -1 ;
-1 x44 +1 x21 >= 0 ;
-1 x44 +1 x34 >= 0 ;
+1 x44 -1 x21 -1 x34 >= -1 ;
-1 x371 +1 x14 >= 0 ;
-1 x371 +1 x31 >= 0 ;
+1 x371 -1 x14 -1 x31 >= -1 ;
-1 x362 +1 x13 >= 0 ;
-1 x362 +1 x32 >= 0 ;
+1 x362 -1 x13 -1 x32 >= -1 ;
-1 x353 +1 x12 >= 0 ;
-1 x353 +1 x33 >= 0 ;
+1 x353 -1 x12 -1 x33 >= -1 ;
-1 x344 +1 x11 >= 0 ;
-1 x344 +1 x34 >= 0 ;
+1 x344 -1 x11 -1 x34 >= -1 ;
-1 x81 +1 x25 >= 0 ;
-1 x81 +1 x31 >= 0 ;
+1 x81 -1 x25 -1 x31 >= -1 ;
-1 x72 +1 x24 >= 0 ;
-1 x72 +1 x32 >= 0 ;
+1 x72 -1 x24 -1 x32 >= -1 ;
-1 x63 +1 x23 >= 0 ;
-1 x63 +1 x33 >= 0 ;
+1 x63 -1 x23 -1 x33 >= -1 ;
-1 x54 +1 x22 >= 0 ;
-1 x54 +1 x34 >= 0 ;
+1 x54 -1 x22 -1 x34 >= -1 ;
-1 x45 +1 x21 >= 0 ;
-1 x45 +1 x35 >= 0 ;
+1 x45 -1 x21 -1 x35 >= -1 ;
-1 x381 +1 x15 >= 0 ;
-1 x381 +1 x31 >= 0 ;
+1 x381 -1 x15 -1 x31 >= -1 ;
-1 x372 +1 x14 >= 0 ;
-1 x372 +1 x32 >= 0 ;
+1 x372 -1 x14 -1 x32 >= -1 ;
-1 x363 +1 x13 >= 0 ;
-1 x363 +1 x33 >= 0 ;
+1 x363 -1 x13 -1 x33 >= -1 ;
-1 x354 +1 x12 >= 0 ;
-1 x354 +1 x34 >= 0 ;
+1 x354 -1 x12 -1 x34 >= -1 ;
-1 x345 +1 x11 >= 0 ;
-1 x345 +1 x35 >= 0 ;
+1 x345 -1 x11 -1 x35 >= -1 ;
-1 x91 +1 x26 >= 0 ;
-1 x91 +1 x31 >= 0 ;
+1 x91 -1 x26 -1 x31 >= -1 ;
-1 x82 +1 x25 >= 0 ;
-1 x82 +1 x32 >= 0 ;
+1 x82 -1 x25 -1 x32 >= -1 ;
-1 x73 +1 x24 >= 0 ;
-1 x73 +1 x33 >= 0 ;
+1 x73 -1 x24 -1 x33 >= -1 ;
-1 x64 +1 x23 >= 0 ;
-1 x64 +1 x34 >= 0 ;
+1 x64 -1 x23 -1 x34 >= -1 ;
-1 x55 +1 x22 >= 0 ;
-1 x55 +1 x35 >= 0 ;
+1 x55 -1 x22 -1 x35 >= -1 ;
-1 x46 +1 x21 >= 0 ;
-1 x46 +1 x36 >= 0 ;
+1 x46 -1 x21 -1 x36 >= -1 ;
-1 x391 +1 x16 >= 0 ;
-1 x391 +1 x31 >= 0 ;
+1 x391 -1 x16 -1 x31 >= -1 ;
-1 x382 +1 x15 >= 0 ;
-1 x382 +1 x32 >= 0 ;
+1 x382 -1 x15 -1 x32 >= -1 ;
-1 x373 +1 x14 >= 0 ;
-1 x373 +1 x33 >= 0 ;
+1 x373 -1 x14 -1 x33 >= -1 ;
-1 x364 +1 x13 >= 0 ;
-1 x364 +1 x34 >= 0 ;
+1 x364 -1 x13 -1 x34 >= -1 ;
-1 x355 +1 x12 >= 0 ;
-1 x355 +1 x35 >= 0 ;
+1 x355 -1 x12 -1 x35 >= -1 ;
-1 x346 +1 x11 >= 0 ;
-1 x346 +1 x36 >= 0 ;
+1 x346 -1 x11 -1 x36 >= -1 ;
-1 x101 +1 x27 >= 0 ;
-1 x101 +1 x31 >= 0 ;
+1 x101 -1 x27 -1 x31 >= -1 ;
-1 x92 +1 x26 >= 0 ;
-1 x92 +1 x32 >= 0 ;
+1 x92 -1 x26 -1 x32 >= -1 ;
-1 x83 +1 x25 >= 0 ;
-1 x83 +1 x33 >= 0 ;
+1 x83 -1 x25 -1 x33 >= -1 ;
-1 x74 +1 x24 >= 0 ;
-1 x74 +1 x34 >= 0 ;
+1 x74 -1 x24 -1 x34 >= -1 ;
-1 x65 +1 x23 >= 0 ;
-1 x65 +1 x35 >= 0 ;
+1 x65 -1 x23 -1 x35 >= -1 ;
-1 x56 +1 x22 >= 0 ;
-1 x56 +1 x36 >= 0 ;
+1 x56 -1 x22 -1 x36 >= -1 ;
-1 x47 +1 x21 >= 0 ;
-1 x47 +1 x37 >= 0 ;
+1 x47 -1 x21 -1 x37 >= -1 ;
-1 x401 +1 x17 >= 0 ;
-1 x401 +1 x31 >= 0 ;
+1 x401 -1 x17 -1 x31 >= -1 ;
-1 x392 +1 x16 >= 0 ;
-1 x392 +1 x32 >= 0 ;
+1 x392 -1 x16 -1 x32 >= -1 ;
-1 x383 +1 x15 >= 0 ;
-1 x383 +1 x33 >= 0 ;
+1 x383 -1 x15 -1 x33 >= -1 ;
-1 x374 +1 x14 >= 0 ;
-1 x374 +1 x34 >= 0 ;
+1 x374 -1 x14 -1 x34 >= -1 ;
-1 x365 +1 x13 >= 0 ;
-1 x365 +1 x35 >= 0 ;
+1 x365 -1 x13 -1 x35 >= -1 ;
-1 x356 +1 x12 >= 0 ;
-1 x356 +1 x36 >= 0 ;
+1 x356 -1 x12 -1 x36 >= -1 ;
-1 x347 +1 x11 >= 0 ;
-1 x347 +1 x37 >= 0 ;
+1 x347 -1 x11 -1 x37 >= -1 ;
-1 x111 +1 x28 >= 0 ;
-1 x111 +1 x31 >= 0 ;
+1 x111 -1 x28 -1 x31 >= -1 ;
-1 x102 +1 x27 >= 0 ;
-1 x102 +1 x32 >= 0 ;
+1 x102 -1 x27 -1 x32 >= -1 ;
-1 x93 +1 x26 >= 0 ;
-1 x93 +1 x33 >= 0 ;
+1 x93 -1 x26 -1 x33 >= -1 ;
-1 x84 +1 x25 >= 0 ;
-1 x84 +1 x34 >= 0 ;
+1 x84 -1 x25 -1 x34 >= -1 ;
-1 x75 +1 x24 >= 0 ;
-1 x75 +1 x35 >= 0 ;
+1 x75 -1 x24 -1 x35 >= -1 ;
-1 x66 +1 x23 >= 0 ;
-1 x66 +1 x36 >= 0 ;
+1 x66 -1 x23 -1 x36 >= -1 ;
-1 x57 +1 x22 >= 0 ;
-1 x57 +1 x37 >= 0 ;
+1 x57 -1 x22 -1 x37 >= -1 ;
-1 x48 +1 x21 >= 0 ;
-1 x48 +1 x38 >= 0 ;
+1 x48 -1 x21 -1 x38 >= -1 ;
-1 x411 +1 x18 >= 0 ;
-1 x411 +1 x31 >= 0 ;
+1 x411 -1 x18 -1 x31 >= -1 ;
-1 x402 +1 x17 >= 0 ;
-1 x402 +1 x32 >= 0 ;
+1 x402 -1 x17 -1 x32 >= -1 ;
-1 x393 +1 x16 >= 0 ;
-1 x393 +1 x33 >= 0 ;
+1 x393 -1 x16 -1 x33 >= -1 ;
-1 x384 +1 x15 >= 0 ;
-1 x384 +1 x34 >= 0 ;
+1 x384 -1 x15 -1 x34 >= -1 ;
-1 x375 +1 x14 >= 0 ;
-1 x375 +1 x35 >= 0 ;
+1 x375 -1 x14 -1 x35 >= -1 ;
-1 x366 +1 x13 >= 0 ;
-1 x366 +1 x36 >= 0 ;
+1 x366 -1 x13 -1 x36 >= -1 ;
-1 x357 +1 x12 >= 0 ;
-1 x357 +1 x37 >= 0 ;
+1 x357 -1 x12 -1 x37 >= -1 ;
-1 x348 +1 x11 >= 0 ;
-1 x348 +1 x38 >= 0 ;
+1 x348 -1 x11 -1 x38 >= -1 ;
-1 x121 +1 x29 >= 0 ;
-1 x121 +1 x31 >= 0 ;
+1 x121 -1 x29 -1 x31 >= -1 ;
-1 x112 +1 x28 >= 0 ;
-1 x112 +1 x32 >= 0 ;
+1 x112 -1 x28 -1 x32 >= -1 ;
-1 x103 +1 x27 >= 0 ;
-1 x103 +1 x33 >= 0 ;
+1 x103 -1 x27 -1 x33 >= -1 ;
-1 x94 +1 x26 >= 0 ;
-1 x94 +1 x34 >= 0 ;
+1 x94 -1 x26 -1 x34 >= -1 ;
-1 x85 +1 x25 >= 0 ;
-1 x85 +1 x35 >= 0 ;
+1 x85 -1 x25 -1 x35 >= -1 ;
-1 x76 +1 x24 >= 0 ;
-1 x76 +1 x36 >= 0 ;
+1 x76 -1 x24 -1 x36 >= -1 ;
-1 x67 +1 x23 >= 0 ;
-1 x67 +1 x37 >= 0 ;
+1 x67 -1 x23 -1 x37 >= -1 ;
-1 x58 +1 x22 >= 0 ;
-1 x58 +1 x38 >= 0 ;
+1 x58 -1 x22 -1 x38 >= -1 ;
-1 x49 +1 x21 >= 0 ;
-1 x49 +1 x39 >= 0 ;
+1 x49 -1 x21 -1 x39 >= -1 ;
-1 x421 +1 x19 >= 0 ;
-1 x421 +1 x31 >= 0 ;
+1 x421 -1 x19 -1 x31 >= -1 ;
-1 x412 +1 x18 >= 0 ;
-1 x412 +1 x32 >= 0 ;
+1 x412 -1 x18 -1 x32 >= -1 ;
-1 x403 +1 x17 >= 0 ;
-1 x403 +1 x33 >= 0 ;
+1 x403 -1 x17 -1 x33 >= -1 ;
-1 x394 +1 x16 >= 0 ;
-1 x394 +1 x34 >= 0 ;
+1 x394 -1 x16 -1 x34 >= -1 ;
-1 x385 +1 x15 >= 0 ;
-1 x385 +1 x35 >= 0 ;
+1 x385 -1 x15 -1 x35 >= -1 ;
-1 x376 +1 x14 >= 0 ;
-1 x376 +1 x36 >= 0 ;
+1 x376 -1 x14 -1 x36 >= -1 ;
-1 x367 +1 x13 >= 0 ;
-1 x367 +1 x37 >= 0 ;
+1 x367 -1 x13 -1 x37 >= -1 ;
-1 x358 +1 x12 >= 0 ;
-1 x358 +1 x38 >= 0 ;
+1 x358 -1 x12 -1 x38 >= -1 ;
-1 x349 +1 x11 >= 0 ;
-1 x349 +1 x39 >= 0 ;
+1 x349 -1 x11 -1 x39 >= -1 ;
-1 x131 +1 x30 >= 0 ;
-1 x131 +1 x31 >= 0 ;
+1 x131 -1 x30 -1 x31 >= -1 ;
-1 x122 +1 x29 >= 0 ;
-1 x122 +1 x32 >= 0 ;
+1 x122 -1 x29 -1 x32 >= -1 ;
-1 x113 +1 x28 >= 0 ;
-1 x113 +1 x33 >= 0 ;
+1 x113 -1 x28 -1 x33 >= -1 ;
-1 x104 +1 x27 >= 0 ;
-1 x104 +1 x34 >= 0 ;
+1 x104 -1 x27 -1 x34 >= -1 ;
-1 x95 +1 x26 >= 0 ;
-1 x95 +1 x35 >= 0 ;
+1 x95 -1 x26 -1 x35 >= -1 ;
-1 x86 +1 x25 >= 0 ;
-1 x86 +1 x36 >= 0 ;
+1 x86 -1 x25 -1 x36 >= -1 ;
-1 x77 +1 x24 >= 0 ;
-1 x77 +1 x37 >= 0 ;
+1 x77 -1 x24 -1 x37 >= -1 ;
-1 x68 +1 x23 >= 0 ;
-1 x68 +1 x38 >= 0 ;
+1 x68 -1 x23 -1 x38 >= -1 ;
-1 x59 +1 x22 >= 0 ;
-1 x59 +1 x39 >= 0 ;
+1 x59 -1 x22 -1 x39 >= -1 ;
-1 x50 +1 x21 >= 0 ;
-1 x50 +1 x40 >= 0 ;
+1 x50 -1 x21 -1 x40 >= -1 ;
-1 x431 +1 x20 >= 0 ;
-1 x431 +1 x31 >= 0 ;
+1 x431 -1 x20 -1 x31 >= -1 ;
-1 x422 +1 x19 >= 0 ;
-1 x422 +1 x32 >= 0 ;
+1 x422 -1 x19 -1 x32 >= -1 ;
-1 x413 +1 x18 >= 0 ;
-1 x413 +1 x33 >= 0 ;
+1 x413 -1 x18 -1 x33 >= -1 ;
-1 x404 +1 x17 >= 0 ;
-1 x404 +1 x34 >= 0 ;
+1 x404 -1 x17 -1 x34 >= -1 ;
-1 x395 +1 x16 >= 0 ;
-1 x395 +1 x35 >= 0 ;
+1 x395 -1 x16 -1 x35 >= -1 ;
-1 x386 +1 x15 >= 0 ;
-1 x386 +1 x36 >= 0 ;
+1 x386 -1 x15 -1 x36 >= -1 ;
-1 x377 +1 x14 >= 0 ;
-1 x377 +1 x37 >= 0 ;
+1 x377 -1 x14 -1 x37 >= -1 ;
-1 x368 +1 x13 >= 0 ;
-1 x368 +1 x38 >= 0 ;
+1 x368 -1 x13 -1 x38 >= -1 ;
-1 x359 +1 x12 >= 0 ;
-1 x359 +1 x39 >= 0 ;
+1 x359 -1 x12 -1 x39 >= -1 ;
-1 x350 +1 x11 >= 0 ;
-1 x350 +1 x40 >= 0 ;
+1 x350 -1 x11 -1 x40 >= -1 ;
-1 x132 +1 x30 >= 0 ;
-1 x132 +1 x32 >= 0 ;
+1 x132 -1 x30 -1 x32 >= -1 ;
-1 x123 +1 x29 >= 0 ;
-1 x123 +1 x33 >= 0 ;
+1 x123 -1 x29 -1 x33 >= -1 ;
-1 x114 +1 x28 >= 0 ;
-1 x114 +1 x34 >= 0 ;
+1 x114 -1 x28 -1 x34 >= -1 ;
-1 x105 +1 x27 >= 0 ;
-1 x105 +1 x35 >= 0 ;
+1 x105 -1 x27 -1 x35 >= -1 ;
-1 x96 +1 x26 >= 0 ;
-1 x96 +1 x36 >= 0 ;
+1 x96 -1 x26 -1 x36 >= -1 ;
-1 x87 +1 x25 >= 0 ;
-1 x87 +1 x37 >= 0 ;
+1 x87 -1 x25 -1 x37 >= -1 ;
-1 x78 +1 x24 >= 0 ;
-1 x78 +1 x38 >= 0 ;
+1 x78 -1 x24 -1 x38 >= -1 ;
-1 x69 +1 x23 >= 0 ;
-1 x69 +1 x39 >= 0 ;
+1 x69 -1 x23 -1 x39 >= -1 ;
-1 x60 +1 x22 >= 0 ;
-1 x60 +1 x40 >= 0 ;
+1 x60 -1 x22 -1 x40 >= -1 ;
-1 x432 +1 x20 >= 0 ;
-1 x432 +1 x32 >= 0 ;
+1 x432 -1 x20 -1 x32 >= -1 ;
-1 x423 +1 x19 >= 0 ;
-1 x423 +1 x33 >= 0 ;
+1 x423 -1 x19 -1 x33 >= -1 ;
-1 x414 +1 x18 >= 0 ;
-1 x414 +1 x34 >= 0 ;
+1 x414 -1 x18 -1 x34 >= -1 ;
-1 x405 +1 x17 >= 0 ;
-1 x405 +1 x35 >= 0 ;
+1 x405 -1 x17 -1 x35 >= -1 ;
-1 x396 +1 x16 >= 0 ;
-1 x396 +1 x36 >= 0 ;
+1 x396 -1 x16 -1 x36 >= -1 ;
-1 x387 +1 x15 >= 0 ;
-1 x387 +1 x37 >= 0 ;
+1 x387 -1 x15 -1 x37 >= -1 ;
-1 x378 +1 x14 >= 0 ;
-1 x378 +1 x38 >= 0 ;
+1 x378 -1 x14 -1 x38 >= -1 ;
-1 x369 +1 x13 >= 0 ;
-1 x369 +1 x39 >= 0 ;
+1 x369 -1 x13 -1 x39 >= -1 ;
-1 x360 +1 x12 >= 0 ;
-1 x360 +1 x40 >= 0 ;
+1 x360 -1 x12 -1 x40 >= -1 ;
-1 x133 +1 x30 >= 0 ;
-1 x133 +1 x33 >= 0 ;
+1 x133 -1 x30 -1 x33 >= -1 ;
-1 x124 +1 x29 >= 0 ;
-1 x124 +1 x34 >= 0 ;
+1 x124 -1 x29 -1 x34 >= -1 ;
-1 x115 +1 x28 >= 0 ;
-1 x115 +1 x35 >= 0 ;
+1 x115 -1 x28 -1 x35 >= -1 ;
-1 x106 +1 x27 >= 0 ;
-1 x106 +1 x36 >= 0 ;
+1 x106 -1 x27 -1 x36 >= -1 ;
-1 x97 +1 x26 >= 0 ;
-1 x97 +1 x37 >= 0 ;
+1 x97 -1 x26 -1 x37 >= -1 ;
-1 x88 +1 x25 >= 0 ;
-1 x88 +1 x38 >= 0 ;
+1 x88 -1 x25 -1 x38 >= -1 ;
-1 x79 +1 x24 >= 0 ;
-1 x79 +1 x39 >= 0 ;
+1 x79 -1 x24 -1 x39 >= -1 ;
-1 x70 +1 x23 >= 0 ;
-1 x70 +1 x40 >= 0 ;
+1 x70 -1 x23 -1 x40 >= -1 ;
-1 x433 +1 x20 >= 0 ;
-1 x433 +1 x33 >= 0 ;
+1 x433 -1 x20 -1 x33 >= -1 ;
-1 x424 +1 x19 >= 0 ;
-1 x424 +1 x34 >= 0 ;
+1 x424 -1 x19 -1 x34 >= -1 ;
-1 x415 +1 x18 >= 0 ;
-1 x415 +1 x35 >= 0 ;
+1 x415 -1 x18 -1 x35 >= -1 ;
-1 x406 +1 x17 >= 0 ;
-1 x406 +1 x36 >= 0 ;
+1 x406 -1 x17 -1 x36 >= -1 ;
-1 x397 +1 x16 >= 0 ;
-1 x397 +1 x37 >= 0 ;
+1 x397 -1 x16 -1 x37 >= -1 ;
-1 x388 +1 x15 >= 0 ;
-1 x388 +1 x38 >= 0 ;
+1 x388 -1 x15 -1 x38 >= -1 ;
-1 x379 +1 x14 >= 0 ;
-1 x379 +1 x39 >= 0 ;
+1 x379 -1 x14 -1 x39 >= -1 ;
-1 x370 +1 x13 >= 0 ;
-1 x370 +1 x40 >= 0 ;
+1 x370 -1 x13 -1 x40 >= -1 ;
-1 x134 +1 x30 >= 0 ;
-1 x134 +1 x34 >= 0 ;
+1 x134 -1 x30 -1 x34 >= -1 ;
-1 x125 +1 x29 >= 0 ;
-1 x125 +1 x35 >= 0 ;
+1 x125 -1 x29 -1 x35 >= -1 ;
-1 x116 +1 x28 >= 0 ;
-1 x116 +1 x36 >= 0 ;
+1 x116 -1 x28 -1 x36 >= -1 ;
-1 x107 +1 x27 >= 0 ;
-1 x107 +1 x37 >= 0 ;
+1 x107 -1 x27 -1 x37 >= -1 ;
-1 x98 +1 x26 >= 0 ;
-1 x98 +1 x38 >= 0 ;
+1 x98 -1 x26 -1 x38 >= -1 ;
-1 x89 +1 x25 >= 0 ;
-1 x89 +1 x39 >= 0 ;
+1 x89 -1 x25 -1 x39 >= -1 ;
-1 x80 +1 x24 >= 0 ;
-1 x80 +1 x40 >= 0 ;
+1 x80 -1 x24 -1 x40 >= -1 ;
-1 x434 +1 x20 >= 0 ;
-1 x434 +1 x34 >= 0 ;
+1 x434 -1 x20 -1 x34 >= -1 ;
-1 x425 +1 x19 >= 0 ;
-1 x425 +1 x35 >= 0 ;
+1 x425 -1 x19 -1 x35 >= -1 ;
-1 x416 +1 x18 >= 0 ;
-1 x416 +1 x36 >= 0 ;
+1 x416 -1 x18 -1 x36 >= -1 ;
-1 x407 +1 x17 >= 0 ;
-1 x407 +1 x37 >= 0 ;
+1 x407 -1 x17 -1 x37 >= -1 ;
-1 x398 +1 x16 >= 0 ;
-1 x398 +1 x38 >= 0 ;
+1 x398 -1 x16 -1 x38 >= -1 ;
-1 x389 +1 x15 >= 0 ;
-1 x389 +1 x39 >= 0 ;
+1 x389 -1 x15 -1 x39 >= -1 ;
-1 x380 +1 x14 >= 0 ;
-1 x380 +1 x40 >= 0 ;
+1 x380 -1 x14 -1 x40 >= -1 ;
-1 x135 +1 x30 >= 0 ;
-1 x135 +1 x35 >= 0 ;
+1 x135 -1 x30 -1 x35 >= -1 ;
-1 x126 +1 x29 >= 0 ;
-1 x126 +1 x36 >= 0 ;
+1 x126 -1 x29 -1 x36 >= -1 ;
-1 x117 +1 x28 >= 0 ;
-1 x117 +1 x37 >= 0 ;
+1 x117 -1 x28 -1 x37 >= -1 ;
-1 x108 +1 x27 >= 0 ;
-1 x108 +1 x38 >= 0 ;
+1 x108 -1 x27 -1 x38 >= -1 ;
-1 x99 +1 x26 >= 0 ;
-1 x99 +1 x39 >= 0 ;
+1 x99 -1 x26 -1 x39 >= -1 ;
-1 x90 +1 x25 >= 0 ;
-1 x90 +1 x40 >= 0 ;
+1 x90 -1 x25 -1 x40 >= -1 ;
-1 x435 +1 x20 >= 0 ;
-1 x435 +1 x35 >= 0 ;
+1 x435 -1 x20 -1 x35 >= -1 ;
-1 x426 +1 x19 >= 0 ;
-1 x426 +1 x36 >= 0 ;
+1 x426 -1 x19 -1 x36 >= -1 ;
-1 x417 +1 x18 >= 0 ;
-1 x417 +1 x37 >= 0 ;
+1 x417 -1 x18 -1 x37 >= -1 ;
-1 x408 +1 x17 >= 0 ;
-1 x408 +1 x38 >= 0 ;
+1 x408 -1 x17 -1 x38 >= -1 ;
-1 x399 +1 x16 >= 0 ;
-1 x399 +1 x39 >= 0 ;
+1 x399 -1 x16 -1 x39 >= -1 ;
-1 x390 +1 x15 >= 0 ;
-1 x390 +1 x40 >= 0 ;
+1 x390 -1 x15 -1 x40 >= -1 ;
-1 x136 +1 x30 >= 0 ;
-1 x136 +1 x36 >= 0 ;
+1 x136 -1 x30 -1 x36 >= -1 ;
-1 x127 +1 x29 >= 0 ;
-1 x127 +1 x37 >= 0 ;
+1 x127 -1 x29 -1 x37 >= -1 ;
-1 x118 +1 x28 >= 0 ;
-1 x118 +1 x38 >= 0 ;
+1 x118 -1 x28 -1 x38 >= -1 ;
-1 x109 +1 x27 >= 0 ;
-1 x109 +1 x39 >= 0 ;
+1 x109 -1 x27 -1 x39 >= -1 ;
-1 x100 +1 x26 >= 0 ;
-1 x100 +1 x40 >= 0 ;
+1 x100 -1 x26 -1 x40 >= -1 ;
-1 x436 +1 x20 >= 0 ;
-1 x436 +1 x36 >= 0 ;
+1 x436 -1 x20 -1 x36 >= -1 ;
-1 x427 +1 x19 >= 0 ;
-1 x427 +1 x37 >= 0 ;
+1 x427 -1 x19 -1 x37 >= -1 ;
-1 x418 +1 x18 >= 0 ;
-1 x418 +1 x38 >= 0 ;
+1 x418 -1 x18 -1 x38 >= -1 ;
-1 x409 +1 x17 >= 0 ;
-1 x409 +1 x39 >= 0 ;
+1 x409 -1 x17 -1 x39 >= -1 ;
-1 x400 +1 x16 >= 0 ;
-1 x400 +1 x40 >= 0 ;
+1 x400 -1 x16 -1 x40 >= -1 ;
-1 x137 +1 x30 >= 0 ;
-1 x137 +1 x37 >= 0 ;
+1 x137 -1 x30 -1 x37 >= -1 ;
-1 x128 +1 x29 >= 0 ;
-1 x128 +1 x38 >= 0 ;
+1 x128 -1 x29 -1 x38 >= -1 ;
-1 x119 +1 x28 >= 0 ;
-1 x119 +1 x39 >= 0 ;
+1 x119 -1 x28 -1 x39 >= -1 ;
-1 x110 +1 x27 >= 0 ;
-1 x110 +1 x40 >= 0 ;
+1 x110 -1 x27 -1 x40 >= -1 ;
-1 x437 +1 x20 >= 0 ;
-1 x437 +1 x37 >= 0 ;
+1 x437 -1 x20 -1 x37 >= -1 ;
-1 x428 +1 x19 >= 0 ;
-1 x428 +1 x38 >= 0 ;
+1 x428 -1 x19 -1 x38 >= -1 ;
-1 x419 +1 x18 >= 0 ;
-1 x419 +1 x39 >= 0 ;
+1 x419 -1 x18 -1 x39 >= -1 ;
-1 x410 +1 x17 >= 0 ;
-1 x410 +1 x40 >= 0 ;
+1 x410 -1 x17 -1 x40 >= -1 ;
-1 x138 +1 x30 >= 0 ;
-1 x138 +1 x38 >= 0 ;
+1 x138 -1 x30 -1 x38 >= -1 ;
-1 x129 +1 x29 >= 0 ;
-1 x129 +1 x39 >= 0 ;
+1 x129 -1 x29 -1 x39 >= -1 ;
-1 x120 +1 x28 >= 0 ;
-1 x120 +1 x40 >= 0 ;
+1 x120 -1 x28 -1 x40 >= -1 ;
-1 x438 +1 x20 >= 0 ;
-1 x438 +1 x38 >= 0 ;
+1 x438 -1 x20 -1 x38 >= -1 ;
-1 x429 +1 x19 >= 0 ;
-1 x429 +1 x39 >= 0 ;
+1 x429 -1 x19 -1 x39 >= -1 ;
-1 x420 +1 x18 >= 0 ;
-1 x420 +1 x40 >= 0 ;
+1 x420 -1 x18 -1 x40 >= -1 ;
-1 x139 +1 x30 >= 0 ;
-1 x139 +1 x39 >= 0 ;
+1 x139 -1 x30 -1 x39 >= -1 ;
-1 x130 +1 x29 >= 0 ;
-1 x130 +1 x40 >= 0 ;
+1 x130 -1 x29 -1 x40 >= -1 ;
-1 x439 +1 x20 >= 0 ;
-1 x439 +1 x39 >= 0 ;
+1 x439 -1 x20 -1 x39 >= -1 ;
-1 x430 +1 x19 >= 0 ;
-1 x430 +1 x40 >= 0 ;
+1 x430 -1 x19 -1 x40 >= -1 ;
-1 x140 +1 x30 >= 0 ;
-1 x140 +1 x40 >= 0 ;
+1 x140 -1 x30 -1 x40 >= -1 ;
-1 x440 +1 x20 >= 0 ;
-1 x440 +1 x40 >= 0 ;
+1 x440 -1 x20 -1 x40 >= -1 ;
